p cnf 22 54
a 18 3 0
e 1 2 4 5 6 7 8 9 10 11 12 13 14 15 16 17 19 20 21 22 0
-1 2 -3 0
1 -2 -3 0
-1 -2 3 0
1 2 3 0
5 3 0
5 -4 0
-3 4 -5 0
-6 3 0
-6 -5 0
-3 5 6 0
-7 1 -8 0
7 -1 -8 0
-7 -1 8 0
7 1 8 0
-6 -8 -9 0
6 8 -9 0
-6 8 9 0
6 -8 9 0
-12 -10 0
-12 11 0
10 -11 12 0
-14 -13 0
-14 12 0
13 -12 14 0
15 -12 0
15 -14 0
12 14 -15 0
16 8 0
16 1 0
-8 -1 -16 0
16 -17 -18 0
-16 17 -18 0
16 17 18 0
-16 -17 18 0
19 -15 0
19 18 0
15 -18 -19 0
-20 -8 0
-20 12 0
8 -12 20 0
19 -20 -21 0
-19 20 -21 0
19 20 21 0
-19 -20 21 0
-9 -21 -22 0
9 21 -22 0
-9 21 22 0
9 -21 22 0
16 7 -20 -18 9 10 0
19 -17 -16 8 0
7 -18 -5 9 0
-18 -19 15 -8 -9 0
6 -4 -17 -2 3 0
22 0
